Version identifier: 22.1.0.0 | 2022-03-09 | 1a383f8ce
CPXPARAM_Read_DataCheck                          1
CPXPARAM_Threads                                 1
CPXPARAM_TimeLimit                               3600
Tried aggregator 2 times.
MIP Presolve eliminated 391 rows and 38 columns.
MIP Presolve modified 3899 coefficients.
Aggregator did 31 substitutions.
Reduced MIP has 1009 rows, 171 columns, and 6066 nonzeros.
Reduced MIP has 118 binaries, 0 generals, 0 SOSs, and 0 indicators.
Presolve time = 0.03 sec. (8.79 ticks)
Probing fixed 8 vars, tightened 6 bounds.
Probing time = 0.01 sec. (2.64 ticks)
Tried aggregator 1 time.
Detecting symmetries...
MIP Presolve eliminated 14 rows and 8 columns.
MIP Presolve modified 89 coefficients.
Reduced MIP has 995 rows, 163 columns, and 5908 nonzeros.
Reduced MIP has 110 binaries, 0 generals, 0 SOSs, and 0 indicators.
Presolve time = 0.01 sec. (3.93 ticks)
Probing time = 0.00 sec. (2.32 ticks)
Clique table members: 613.
MIP emphasis: balance optimality and feasibility.
MIP search method: dynamic search.
Parallel mode: none, using 1 thread.
Root relaxation solution time = 0.00 sec. (2.71 ticks)

        Nodes                                         Cuts/
   Node  Left     Objective  IInf  Best Integer    Best Bound    ItCnt     Gap

      0     0       48.4332    38                     48.4332       73         
      0     0       48.4332    20                    Cuts: 67      145         
      0     0       48.4332    28                   Cuts: 131      311         
      0     0       48.4332    19                    Cuts: 38      398         
      0     0       48.4332    22                    Cuts: 95      489         
*     0+    0                           49.3217       48.4332             1.80%
Detecting symmetries...

Repeating presolve.
Tried aggregator 1 time.
MIP Presolve eliminated 524 rows and 70 columns.
MIP Presolve modified 977 coefficients.
Reduced MIP has 471 rows, 93 columns, and 2183 nonzeros.
Reduced MIP has 53 binaries, 0 generals, 0 SOSs, and 0 indicators.
Presolve time = 0.00 sec. (2.54 ticks)
Probing fixed 0 vars, tightened 11 bounds.
Probing time = 0.00 sec. (0.95 ticks)
Tried aggregator 1 time.
Detecting symmetries...
MIP Presolve modified 167 coefficients.
Reduced MIP has 471 rows, 93 columns, and 2183 nonzeros.
Reduced MIP has 53 binaries, 0 generals, 0 SOSs, and 0 indicators.
Presolve time = 0.00 sec. (1.61 ticks)
Represolve time = 0.02 sec. (5.93 ticks)
Probing time = 0.00 sec. (0.91 ticks)
Clique table members: 316.
MIP emphasis: balance optimality and feasibility.
MIP search method: dynamic search.
Parallel mode: none, using 1 thread.
Root relaxation solution time = 0.01 sec. (4.08 ticks)

        Nodes                                         Cuts/
   Node  Left     Objective  IInf  Best Integer    Best Bound    ItCnt     Gap

*     0+    0                           49.3217       48.4332             1.80%
      0     0       48.4498    29       49.3217       48.4498      670    1.77%
      0     0       48.4754    29       49.3217     Cuts: 217      730    1.72%
      0     0       48.5035    28       49.3217      Cuts: 82      777    1.66%
      0     0       48.5182    29       49.3217     Cuts: 152      812    1.63%
      0     0       48.5331    32       49.3217      Cuts: 72      836    1.60%
      0     0       48.5470    32       49.3217      Cuts: 37      867    1.57%
      0     0       48.5471    34       49.3217      Cuts: 45      892    1.57%
      0     0       48.5487    25       49.3217       Cuts: 4      900    1.57%
      0     0       48.5491    28       49.3217      Cuts: 42      920    1.57%
Detecting symmetries...
      0     2       48.5491    27       49.3217       48.5507      920    1.56%
Elapsed time = 0.38 sec. (194.45 ticks, tree = 0.01 MB, solutions = 1)

GUB cover cuts applied:  1
Clique cuts applied:  3
Cover cuts applied:  9
Implied bound cuts applied:  15
Flow cuts applied:  1
Mixed integer rounding cuts applied:  41
Zero-half cuts applied:  1
Lift and project cuts applied:  1
Gomory fractional cuts applied:  1

Root node processing (before b&c):
  Real time             =    0.39 sec. (194.45 ticks)
Sequential b&c:
  Real time             =    0.06 sec. (41.21 ticks)
                          ------------
Total (root+branch&cut) =    0.44 sec. (235.65 ticks)
